\* Problem: IPL_linearized_N8q10 *\

Minimize
 obj: + 0.00330093762246927 y(1,1) - 0.000234469799740999 y(1,2)
 - 0.000289846646335713 y(1,3) + 0.0022543749739426 y(1,4)
 + 0.00349538305836685 y(1,5) - 0.00149585219290958 y(1,6)
 + 0.00130279881083051 y(1,7) + 0.00165715724636901 y(1,8)
 - 0.000234469799740999 y(2,1) + 0.00219975065823376 y(2,2)
 + 0.00166894225538469 y(2,3) + 3.64254200428523e-05 y(2,4)
 - 0.000587304702930079 y(2,5) + 0.002022758185126 y(2,6)
 - 6.87185462402527e-05 y(2,7) + 0.000993558843169001 y(2,8)
 - 0.000289846646335713 y(3,1) + 0.00166894225538469 y(3,2)
 + 0.00291471634876582 y(3,3) + 0.000579570824287949 y(3,4)
 - 0.000497551052658431 y(3,5) + 0.00166042423288449 y(3,6)
 + 0.000407052831460201 y(3,7) + 0.00133003704752238 y(3,8)
 + 0.0022543749739426 y(4,1) + 3.64254200428523e-05 y(4,2)
 + 0.000579570824287949 y(4,3) + 0.00219673571003728 y(4,4)
 + 0.00302944713602469 y(4,5) - 0.000556210425515593 y(4,6)
 + 0.00125853522019296 y(4,7) + 0.00146825805596682 y(4,8)
 + 0.00349538305836685 y(5,1) - 0.000587304702930079 y(5,2)
 - 0.000497551052658431 y(5,3) + 0.00302944713602469 y(5,4)
 + 0.0190016774210256 y(5,5) - 0.000874518173943181 y(5,6)
 + 0.0016306675555588 y(5,7) + 0.000444356441866605 y(5,8)
 - 0.00149585219290958 y(6,1) + 0.002022758185126 y(6,2)
 + 0.00166042423288449 y(6,3) - 0.000556210425515593 y(6,4)
 - 0.000874518173943181 y(6,5) + 0.00400515673915887 y(6,6)
 - 0.000961043385596453 y(6,7) + 1.66536032458897e-05 y(6,8)
 + 0.00130279881083051 y(7,1) - 6.87185462402527e-05 y(7,2)
 + 0.000407052831460201 y(7,3) + 0.00125853522019296 y(7,4)
 + 0.0016306675555588 y(7,5) - 0.000961043385596453 y(7,6)
 + 0.00128115079229057 y(7,7) + 0.00107504694781064 y(7,8)
 + 0.00165715724636901 y(8,1) + 0.000993558843169001 y(8,2)
 + 0.00133003704752238 y(8,3) + 0.00146825805596682 y(8,4)
 + 0.000444356441866605 y(8,5) + 1.66536032458897e-05 y(8,6)
 + 0.00107504694781064 y(8,7) + 0.00327739494433865 y(8,8)
 - 0.00667286319447288 x(1) - 9.56132732858106e-05 x(2)
 - 0.00434230035302338 x(3) - 0.0025649184939233 x(4)
 + 0.00335959619432449 x(5) + 0.00235010335856775 x(6)
 - 0.00517621098612854 x(7) - 0.00870726096131751 x(8)

Subject To
 card0: + x(1) + x(2) + x(3) + x(4) + x(5) + x(6) + x(7) + x(8) = 4
 card1(1,1): + y(1,1) - x(1) <= -0
 card1(1,2): + y(1,2) - x(1) <= -0
 card1(1,3): + y(1,3) - x(1) <= -0
 card1(1,4): + y(1,4) - x(1) <= -0
 card1(1,5): + y(1,5) - x(1) <= -0
 card1(1,6): + y(1,6) - x(1) <= -0
 card1(1,7): + y(1,7) - x(1) <= -0
 card1(1,8): + y(1,8) - x(1) <= -0
 card1(2,1): + y(2,1) - x(2) <= -0
 card1(2,2): + y(2,2) - x(2) <= -0
 card1(2,3): + y(2,3) - x(2) <= -0
 card1(2,4): + y(2,4) - x(2) <= -0
 card1(2,5): + y(2,5) - x(2) <= -0
 card1(2,6): + y(2,6) - x(2) <= -0
 card1(2,7): + y(2,7) - x(2) <= -0
 card1(2,8): + y(2,8) - x(2) <= -0
 card1(3,1): + y(3,1) - x(3) <= -0
 card1(3,2): + y(3,2) - x(3) <= -0
 card1(3,3): + y(3,3) - x(3) <= -0
 card1(3,4): + y(3,4) - x(3) <= -0
 card1(3,5): + y(3,5) - x(3) <= -0
 card1(3,6): + y(3,6) - x(3) <= -0
 card1(3,7): + y(3,7) - x(3) <= -0
 card1(3,8): + y(3,8) - x(3) <= -0
 card1(4,1): + y(4,1) - x(4) <= -0
 card1(4,2): + y(4,2) - x(4) <= -0
 card1(4,3): + y(4,3) - x(4) <= -0
 card1(4,4): + y(4,4) - x(4) <= -0
 card1(4,5): + y(4,5) - x(4) <= -0
 card1(4,6): + y(4,6) - x(4) <= -0
 card1(4,7): + y(4,7) - x(4) <= -0
 card1(4,8): + y(4,8) - x(4) <= -0
 card1(5,1): + y(5,1) - x(5) <= -0
 card1(5,2): + y(5,2) - x(5) <= -0
 card1(5,3): + y(5,3) - x(5) <= -0
 card1(5,4): + y(5,4) - x(5) <= -0
 card1(5,5): + y(5,5) - x(5) <= -0
 card1(5,6): + y(5,6) - x(5) <= -0
 card1(5,7): + y(5,7) - x(5) <= -0
 card1(5,8): + y(5,8) - x(5) <= -0
 card1(6,1): + y(6,1) - x(6) <= -0
 card1(6,2): + y(6,2) - x(6) <= -0
 card1(6,3): + y(6,3) - x(6) <= -0
 card1(6,4): + y(6,4) - x(6) <= -0
 card1(6,5): + y(6,5) - x(6) <= -0
 card1(6,6): + y(6,6) - x(6) <= -0
 card1(6,7): + y(6,7) - x(6) <= -0
 card1(6,8): + y(6,8) - x(6) <= -0
 card1(7,1): + y(7,1) - x(7) <= -0
 card1(7,2): + y(7,2) - x(7) <= -0
 card1(7,3): + y(7,3) - x(7) <= -0
 card1(7,4): + y(7,4) - x(7) <= -0
 card1(7,5): + y(7,5) - x(7) <= -0
 card1(7,6): + y(7,6) - x(7) <= -0
 card1(7,7): + y(7,7) - x(7) <= -0
 card1(7,8): + y(7,8) - x(7) <= -0
 card1(8,1): + y(8,1) - x(8) <= -0
 card1(8,2): + y(8,2) - x(8) <= -0
 card1(8,3): + y(8,3) - x(8) <= -0
 card1(8,4): + y(8,4) - x(8) <= -0
 card1(8,5): + y(8,5) - x(8) <= -0
 card1(8,6): + y(8,6) - x(8) <= -0
 card1(8,7): + y(8,7) - x(8) <= -0
 card1(8,8): + y(8,8) - x(8) <= -0
 card2(1,1): + y(1,1) - x(1) <= -0
 card2(1,2): + y(1,2) - x(2) <= -0
 card2(1,3): + y(1,3) - x(3) <= -0
 card2(1,4): + y(1,4) - x(4) <= -0
 card2(1,5): + y(1,5) - x(5) <= -0
 card2(1,6): + y(1,6) - x(6) <= -0
 card2(1,7): + y(1,7) - x(7) <= -0
 card2(1,8): + y(1,8) - x(8) <= -0
 card2(2,1): + y(2,1) - x(1) <= -0
 card2(2,2): + y(2,2) - x(2) <= -0
 card2(2,3): + y(2,3) - x(3) <= -0
 card2(2,4): + y(2,4) - x(4) <= -0
 card2(2,5): + y(2,5) - x(5) <= -0
 card2(2,6): + y(2,6) - x(6) <= -0
 card2(2,7): + y(2,7) - x(7) <= -0
 card2(2,8): + y(2,8) - x(8) <= -0
 card2(3,1): + y(3,1) - x(1) <= -0
 card2(3,2): + y(3,2) - x(2) <= -0
 card2(3,3): + y(3,3) - x(3) <= -0
 card2(3,4): + y(3,4) - x(4) <= -0
 card2(3,5): + y(3,5) - x(5) <= -0
 card2(3,6): + y(3,6) - x(6) <= -0
 card2(3,7): + y(3,7) - x(7) <= -0
 card2(3,8): + y(3,8) - x(8) <= -0
 card2(4,1): + y(4,1) - x(1) <= -0
 card2(4,2): + y(4,2) - x(2) <= -0
 card2(4,3): + y(4,3) - x(3) <= -0
 card2(4,4): + y(4,4) - x(4) <= -0
 card2(4,5): + y(4,5) - x(5) <= -0
 card2(4,6): + y(4,6) - x(6) <= -0
 card2(4,7): + y(4,7) - x(7) <= -0
 card2(4,8): + y(4,8) - x(8) <= -0
 card2(5,1): + y(5,1) - x(1) <= -0
 card2(5,2): + y(5,2) - x(2) <= -0
 card2(5,3): + y(5,3) - x(3) <= -0
 card2(5,4): + y(5,4) - x(4) <= -0
 card2(5,5): + y(5,5) - x(5) <= -0
 card2(5,6): + y(5,6) - x(6) <= -0
 card2(5,7): + y(5,7) - x(7) <= -0
 card2(5,8): + y(5,8) - x(8) <= -0
 card2(6,1): + y(6,1) - x(1) <= -0
 card2(6,2): + y(6,2) - x(2) <= -0
 card2(6,3): + y(6,3) - x(3) <= -0
 card2(6,4): + y(6,4) - x(4) <= -0
 card2(6,5): + y(6,5) - x(5) <= -0
 card2(6,6): + y(6,6) - x(6) <= -0
 card2(6,7): + y(6,7) - x(7) <= -0
 card2(6,8): + y(6,8) - x(8) <= -0
 card2(7,1): + y(7,1) - x(1) <= -0
 card2(7,2): + y(7,2) - x(2) <= -0
 card2(7,3): + y(7,3) - x(3) <= -0
 card2(7,4): + y(7,4) - x(4) <= -0
 card2(7,5): + y(7,5) - x(5) <= -0
 card2(7,6): + y(7,6) - x(6) <= -0
 card2(7,7): + y(7,7) - x(7) <= -0
 card2(7,8): + y(7,8) - x(8) <= -0
 card2(8,1): + y(8,1) - x(1) <= -0
 card2(8,2): + y(8,2) - x(2) <= -0
 card2(8,3): + y(8,3) - x(3) <= -0
 card2(8,4): + y(8,4) - x(4) <= -0
 card2(8,5): + y(8,5) - x(5) <= -0
 card2(8,6): + y(8,6) - x(6) <= -0
 card2(8,7): + y(8,7) - x(7) <= -0
 card2(8,8): + y(8,8) - x(8) <= -0
 card3(1,1): + y(1,1) - 2 x(1) >= -1
 card3(1,2): + y(1,2) - x(1) - x(2) >= -1
 card3(1,3): + y(1,3) - x(1) - x(3) >= -1
 card3(1,4): + y(1,4) - x(1) - x(4) >= -1
 card3(1,5): + y(1,5) - x(1) - x(5) >= -1
 card3(1,6): + y(1,6) - x(1) - x(6) >= -1
 card3(1,7): + y(1,7) - x(1) - x(7) >= -1
 card3(1,8): + y(1,8) - x(1) - x(8) >= -1
 card3(2,1): + y(2,1) - x(1) - x(2) >= -1
 card3(2,2): + y(2,2) - 2 x(2) >= -1
 card3(2,3): + y(2,3) - x(2) - x(3) >= -1
 card3(2,4): + y(2,4) - x(2) - x(4) >= -1
 card3(2,5): + y(2,5) - x(2) - x(5) >= -1
 card3(2,6): + y(2,6) - x(2) - x(6) >= -1
 card3(2,7): + y(2,7) - x(2) - x(7) >= -1
 card3(2,8): + y(2,8) - x(2) - x(8) >= -1
 card3(3,1): + y(3,1) - x(1) - x(3) >= -1
 card3(3,2): + y(3,2) - x(2) - x(3) >= -1
 card3(3,3): + y(3,3) - 2 x(3) >= -1
 card3(3,4): + y(3,4) - x(3) - x(4) >= -1
 card3(3,5): + y(3,5) - x(3) - x(5) >= -1
 card3(3,6): + y(3,6) - x(3) - x(6) >= -1
 card3(3,7): + y(3,7) - x(3) - x(7) >= -1
 card3(3,8): + y(3,8) - x(3) - x(8) >= -1
 card3(4,1): + y(4,1) - x(1) - x(4) >= -1
 card3(4,2): + y(4,2) - x(2) - x(4) >= -1
 card3(4,3): + y(4,3) - x(3) - x(4) >= -1
 card3(4,4): + y(4,4) - 2 x(4) >= -1
 card3(4,5): + y(4,5) - x(4) - x(5) >= -1
 card3(4,6): + y(4,6) - x(4) - x(6) >= -1
 card3(4,7): + y(4,7) - x(4) - x(7) >= -1
 card3(4,8): + y(4,8) - x(4) - x(8) >= -1
 card3(5,1): + y(5,1) - x(1) - x(5) >= -1
 card3(5,2): + y(5,2) - x(2) - x(5) >= -1
 card3(5,3): + y(5,3) - x(3) - x(5) >= -1
 card3(5,4): + y(5,4) - x(4) - x(5) >= -1
 card3(5,5): + y(5,5) - 2 x(5) >= -1
 card3(5,6): + y(5,6) - x(5) - x(6) >= -1
 card3(5,7): + y(5,7) - x(5) - x(7) >= -1
 card3(5,8): + y(5,8) - x(5) - x(8) >= -1
 card3(6,1): + y(6,1) - x(1) - x(6) >= -1
 card3(6,2): + y(6,2) - x(2) - x(6) >= -1
 card3(6,3): + y(6,3) - x(3) - x(6) >= -1
 card3(6,4): + y(6,4) - x(4) - x(6) >= -1
 card3(6,5): + y(6,5) - x(5) - x(6) >= -1
 card3(6,6): + y(6,6) - 2 x(6) >= -1
 card3(6,7): + y(6,7) - x(6) - x(7) >= -1
 card3(6,8): + y(6,8) - x(6) - x(8) >= -1
 card3(7,1): + y(7,1) - x(1) - x(7) >= -1
 card3(7,2): + y(7,2) - x(2) - x(7) >= -1
 card3(7,3): + y(7,3) - x(3) - x(7) >= -1
 card3(7,4): + y(7,4) - x(4) - x(7) >= -1
 card3(7,5): + y(7,5) - x(5) - x(7) >= -1
 card3(7,6): + y(7,6) - x(6) - x(7) >= -1
 card3(7,7): + y(7,7) - 2 x(7) >= -1
 card3(7,8): + y(7,8) - x(7) - x(8) >= -1
 card3(8,1): + y(8,1) - x(1) - x(8) >= -1
 card3(8,2): + y(8,2) - x(2) - x(8) >= -1
 card3(8,3): + y(8,3) - x(3) - x(8) >= -1
 card3(8,4): + y(8,4) - x(4) - x(8) >= -1
 card3(8,5): + y(8,5) - x(5) - x(8) >= -1
 card3(8,6): + y(8,6) - x(6) - x(8) >= -1
 card3(8,7): + y(8,7) - x(7) - x(8) >= -1
 card3(8,8): + y(8,8) - 2 x(8) >= -1

Bounds
 0 <= y(1,1) <= 1
 0 <= y(1,2) <= 1
 0 <= y(1,3) <= 1
 0 <= y(1,4) <= 1
 0 <= y(1,5) <= 1
 0 <= y(1,6) <= 1
 0 <= y(1,7) <= 1
 0 <= y(1,8) <= 1
 0 <= y(2,1) <= 1
 0 <= y(2,2) <= 1
 0 <= y(2,3) <= 1
 0 <= y(2,4) <= 1
 0 <= y(2,5) <= 1
 0 <= y(2,6) <= 1
 0 <= y(2,7) <= 1
 0 <= y(2,8) <= 1
 0 <= y(3,1) <= 1
 0 <= y(3,2) <= 1
 0 <= y(3,3) <= 1
 0 <= y(3,4) <= 1
 0 <= y(3,5) <= 1
 0 <= y(3,6) <= 1
 0 <= y(3,7) <= 1
 0 <= y(3,8) <= 1
 0 <= y(4,1) <= 1
 0 <= y(4,2) <= 1
 0 <= y(4,3) <= 1
 0 <= y(4,4) <= 1
 0 <= y(4,5) <= 1
 0 <= y(4,6) <= 1
 0 <= y(4,7) <= 1
 0 <= y(4,8) <= 1
 0 <= y(5,1) <= 1
 0 <= y(5,2) <= 1
 0 <= y(5,3) <= 1
 0 <= y(5,4) <= 1
 0 <= y(5,5) <= 1
 0 <= y(5,6) <= 1
 0 <= y(5,7) <= 1
 0 <= y(5,8) <= 1
 0 <= y(6,1) <= 1
 0 <= y(6,2) <= 1
 0 <= y(6,3) <= 1
 0 <= y(6,4) <= 1
 0 <= y(6,5) <= 1
 0 <= y(6,6) <= 1
 0 <= y(6,7) <= 1
 0 <= y(6,8) <= 1
 0 <= y(7,1) <= 1
 0 <= y(7,2) <= 1
 0 <= y(7,3) <= 1
 0 <= y(7,4) <= 1
 0 <= y(7,5) <= 1
 0 <= y(7,6) <= 1
 0 <= y(7,7) <= 1
 0 <= y(7,8) <= 1
 0 <= y(8,1) <= 1
 0 <= y(8,2) <= 1
 0 <= y(8,3) <= 1
 0 <= y(8,4) <= 1
 0 <= y(8,5) <= 1
 0 <= y(8,6) <= 1
 0 <= y(8,7) <= 1
 0 <= y(8,8) <= 1
 0 <= x(1) <= 1
 0 <= x(2) <= 1
 0 <= x(3) <= 1
 0 <= x(4) <= 1
 0 <= x(5) <= 1
 0 <= x(6) <= 1
 0 <= x(7) <= 1
 0 <= x(8) <= 1

Generals
 y(1,1)
 y(1,2)
 y(1,3)
 y(1,4)
 y(1,5)
 y(1,6)
 y(1,7)
 y(1,8)
 y(2,1)
 y(2,2)
 y(2,3)
 y(2,4)
 y(2,5)
 y(2,6)
 y(2,7)
 y(2,8)
 y(3,1)
 y(3,2)
 y(3,3)
 y(3,4)
 y(3,5)
 y(3,6)
 y(3,7)
 y(3,8)
 y(4,1)
 y(4,2)
 y(4,3)
 y(4,4)
 y(4,5)
 y(4,6)
 y(4,7)
 y(4,8)
 y(5,1)
 y(5,2)
 y(5,3)
 y(5,4)
 y(5,5)
 y(5,6)
 y(5,7)
 y(5,8)
 y(6,1)
 y(6,2)
 y(6,3)
 y(6,4)
 y(6,5)
 y(6,6)
 y(6,7)
 y(6,8)
 y(7,1)
 y(7,2)
 y(7,3)
 y(7,4)
 y(7,5)
 y(7,6)
 y(7,7)
 y(7,8)
 y(8,1)
 y(8,2)
 y(8,3)
 y(8,4)
 y(8,5)
 y(8,6)
 y(8,7)
 y(8,8)
 x(1)
 x(2)
 x(3)
 x(4)
 x(5)
 x(6)
 x(7)
 x(8)

End
